webassembly/ejemplos_dzn/16/folder16_json_76.dzn
TERM = { '.', 's(2)', 'in_1', 'local_0', 'local_1', 'in_6', 'in_2', 'in_4', 'in_3', 's(6)', 's(1)', 's(0)', 's(7)', 'in_7', 'in_5', 's(3)', 'in_0'};
null = '.';
s = 16;
n = 14;
ndeps = 5;
max_registers_sz = 5;
NR = 2;
registers = [|'local_0', 'in_4', |'local_1', 'in_6'|];
dependencies = [|'i32.load_0', 'i32.store_7', |'i32.store_7', 'i32.load8_s_14', |'i32.load8_s_1', 'i32.store_7', |'i32.load8_u_3', 'i32.store_7', |'i32.load8_s_14', 'i32.store16_15'|];
GET_ENUM = { GET1, GET2, GET3, GET4, GET5, GET6, GET7};
SET_ENUM = { SET1, SET2, SET3, SET4, SET5, SET6, SET7};
TEE_ENUM = { TEE1, TEE2, TEE3, TEE4, TEE5, TEE6, TEE7};
N = 8;
OP = { 'i32.load_0', 'i32.load8_s_1', 'i32.const_0', 'i32.load8_u_3', 'i32.sub_0', 'i32.store_7', 'i32.load8_s_14', 'i32.store16_15' };
in_ops = [1, 1, 0, 1, 2, 2, 1, 2 ];
out_ops = [1, 1, 1, 1, 1, 0, 1, 0 ];
in1 = ['in_0', 's(0)', '.', 's(7)', 's(1)', 's(2)', 'in_6', 's(6)' ];
in2 = ['.', '.', '.', '.', 'in_1', 's(3)', '.', 'in_7' ];
in3 = ['.', '.', '.', '.', '.', '.', '.', '.' ];
out1 = ['s(0)', 's(1)', 's(7)', 's(2)', 's(3)', '.', 's(6)', '.' ];
out2 = ['.', '.', '.', '.', '.', '.', '.', '.' ];
out3 = ['.', '.', '.', '.', '.', '.', '.', '.' ];
comm = [false, false, false, false, false, false, false, false ];
gas = [1, 1, 1, 1, 1, 1, 1, 1 ];
sz = [1, 1, 1, 1, 1, 1, 1, 1 ];
stor = [false, false, false, false, false, true, false, true ];
lb = [ 1, 1, 1, 1, 1, 1, 1, 1 ];
ub = [ 16, 16, 16, 16, 16, 16, 16, 16 ];
startstack = [ 'in_0', 'in_1', 'in_2', 'in_3', 'in_4', 'in_5', 'in_6', 'in_7', null, null, null, null, null, null ];
endstack = [ null, null, null, null, null, null, null, null, null, null, null, null, null, null ];
